NAME: kroB150
COMMENT: Quick (5min) local search tour for kroB150 (30749.277913959966)
TYPE: TOUR
DIMENSION: 150
TOUR_SECTION: 1 85 15 79 110 20 64 42 55 147 65 67 31 47 6 54 134 75 22 112 8 106 17 25 90 34 145 109 98 148 28 88 58 114 108 113 138 149 104 2 35 68 30 102 23 50 133 86 119 56 101 126 62 83 72 124 71 38 39 43 5 129 95 94 123 91 70 111 121 76 131 139 21 122 89 41 59 3 73 118 69 74 57 36 33 100 136 144 97 81 45 10 48 96 87 150 52 11 84 128 103 66 44 63 51 127 146 135 16 120 37 29 18 49 93 143 141 99 105 19 92 14 4 116 60 140 115 77 80 107 130 13 27 40 12 125 46 142 24 32 132 61 26 9 78 82 7 117 137 53 -1
EOF